************************************************************************
file with basedata            : j9016_.bas
initial value random generator: 1443586420
************************************************************************
projects                      :  1
jobs (incl. supersource/sink ):  92
horizon                       :  475
RESOURCES
  - renewable                 :  4   R
  - nonrenewable              :  0   N
  - doubly constrained        :  0   D
************************************************************************
PROJECT INFORMATION:
pronr.  #jobs rel.date duedate tardcost  MPM-Time
    1     90      0       71        0       71
************************************************************************
PRECEDENCE RELATIONS:
jobnr.    #modes  #successors   successors
   1        1          3           2   3   4
   2        1          3          19  21  24
   3        1          2          10  32
   4        1          3           5   6   8
   5        1          3           7   9  18
   6        1          1          16
   7        1          1          86
   8        1          3          11  28  38
   9        1          1          21
  10        1          3          12  14  15
  11        1          2          13  49
  12        1          2          33  39
  13        1          2          20  89
  14        1          3          17  57  60
  15        1          3          27  30  31
  16        1          2          43  78
  17        1          1          50
  18        1          1          35
  19        1          1          61
  20        1          2          22  55
  21        1          2          26  47
  22        1          3          23  25  65
  23        1          1          37
  24        1          3          43  51  67
  25        1          1          48
  26        1          1          29
  27        1          2          80  81
  28        1          3          40  53  82
  29        1          1          80
  30        1          1          69
  31        1          3          34  69  83
  32        1          3          36  62  68
  33        1          1          76
  34        1          2          36  41
  35        1          2          59  70
  36        1          2          46  52
  37        1          1          57
  38        1          1          79
  39        1          1          73
  40        1          1          62
  41        1          2          42  45
  42        1          1          44
  43        1          1          54
  44        1          1          85
  45        1          1          79
  46        1          1          66
  47        1          1          58
  48        1          1          84
  49        1          1          71
  50        1          1          63
  51        1          3          52  64  78
  52        1          2          56  72
  53        1          1          66
  54        1          1          88
  55        1          1          61
  56        1          1          85
  57        1          1          59
  58        1          3          61  71  75
  59        1          1          80
  60        1          1          62
  61        1          2          74  78
  62        1          1          90
  63        1          1          87
  64        1          1          77
  65        1          2          68  72
  66        1          1          87
  67        1          1          79
  68        1          1          71
  69        1          1          76
  70        1          1          77
  71        1          1          86
  72        1          1          81
  73        1          1          76
  74        1          1          87
  75        1          1          81
  76        1          1          88
  77        1          2          84  89
  78        1          1          91
  79        1          1          84
  80        1          1          82
  81        1          2          82  86
  82        1          1          85
  83        1          1          88
  84        1          1          90
  85        1          1          91
  86        1          1          90
  87        1          1          91
  88        1          1          89
  89        1          1          92
  90        1          1          92
  91        1          1          92
  92        1          0        
************************************************************************
REQUESTS/DURATIONS:
jobnr. mode duration  R 1  R 2  R 3  R 4
------------------------------------------------------------------------
  1      1     0       0    0    0    0
  2      1     3       6    5    3    1
  3      1     5       9    8    9   10
  4      1     1       1    5    5    6
  5      1     3       3    3    4   10
  6      1     8       1    2    3    4
  7      1     1       9    1    5    4
  8      1     4       1    4    6    7
  9      1     2       1    5    5    8
 10      1     5       8    7    1    6
 11      1     7       2    3    6   10
 12      1     8       1    6    6    4
 13      1    10       1    2    4    4
 14      1     5       5    7    4    8
 15      1     5       7    8    8    3
 16      1     5       4    4    8    4
 17      1     5       7   10   10    6
 18      1     8       8    1    3    9
 19      1     2       7    8    9    3
 20      1     9       4    7    1   10
 21      1     6       9    3    2    9
 22      1     5       6    2   10    6
 23      1     8       8    8    8    9
 24      1     4       3    1    9    8
 25      1     5       8   10   10    3
 26      1     4       8    1    4    3
 27      1     1       4    6    8    6
 28      1     8       8    7   10    5
 29      1     5      10    8    1    1
 30      1     4      10    4    7    6
 31      1     3       5    5    8    7
 32      1     9       4    4    3    4
 33      1     5       2    2    2    2
 34      1     3       1    3    1    2
 35      1     7       8    9    8    7
 36      1     8      10    6    9   10
 37      1     8       6    5    6   10
 38      1     4      10    3   10    8
 39      1     8      10    8    6    6
 40      1     6      10    6    3   10
 41      1     9       5   10    9    9
 42      1     9       1    2    3    4
 43      1     9       4    5    4    8
 44      1     6       6    8    8    4
 45      1     3       9    9    5    7
 46      1     8       4    1    5    4
 47      1     4       4    5    5    1
 48      1    10       4    2    9    5
 49      1     9       9    6    5    8
 50      1     8       3    2    5    8
 51      1     9       8    7    6    1
 52      1    10       6    9    5    3
 53      1     5       8    2    4    2
 54      1     1      10    5    3    1
 55      1     9       4    9    3    3
 56      1     8       7    6    5   10
 57      1     7      10   10    6    4
 58      1     1       7   10    7    9
 59      1     3       4    5    9    3
 60      1     8       1    1    1    3
 61      1    10      10    8    3    5
 62      1     8      10   10    1    5
 63      1     8      10   10    5    8
 64      1     2       2    4    4    2
 65      1     6       1    8   10    4
 66      1     4       8    6    3    7
 67      1     1       4   10    7    8
 68      1     1       3    2    5   10
 69      1     5       4    4    4    5
 70      1     3       5    4    2    7
 71      1     9       2    5    6    5
 72      1     2       5    3    4    2
 73      1     4       9    2    2    4
 74      1     6       2    4    2    6
 75      1     3       5    4    7    3
 76      1     8      10    6    5    8
 77      1     3       7    3    7    3
 78      1     2      10    4    1    6
 79      1    10       3    7   10    2
 80      1     1       7    4    4    2
 81      1     5       6    7    7    3
 82      1     4       5    8    5    6
 83      1     1       3    4   10    2
 84      1     5       2    8    4   10
 85      1     1       3    7    5    6
 86      1     7       4    4    2    3
 87      1     4       5    8    9    6
 88      1     3       7    2    2    6
 89      1     1       6    8    8    5
 90      1     2       6    9    1    2
 91      1     3       6    8    2    4
 92      1     0       0    0    0    0
************************************************************************
RESOURCEAVAILABILITIES:
  R 1  R 2  R 3  R 4
   88   78   83   77
************************************************************************
